NAME : kroB150.12196.tour
COMMENT : Length = 12196
COMMENT : Found by LKH [Keld Helsgaun] Wed May 29 17:05:41 2013
TYPE : TOUR
DIMENSION : 30
TOUR_SECTION
85
15
67
147
80
54
113
108
145
28
119
86
129
76
102
21
89
59
140
69
36
10
96
103
63
78
7
132
46
40
-1
EOF
